(set-logic QF_LIA)
(declare-fun x0 () Int)
(declare-fun x1 () Int)
(declare-fun x2 () Int)
(declare-fun x3 () Int)
(declare-fun x4 () Int)
(declare-fun x5 () Int)
(declare-fun x6 () Int)
(declare-fun x7 () Int)
(declare-fun x8 () Int)
(declare-fun x9 () Int)
(declare-fun A0 () Bool)
(declare-fun A1 () Bool)
(declare-fun A2 () Bool)
(declare-fun A3 () Bool)
(declare-fun A4 () Bool)
(declare-fun A6 () Bool)
(declare-fun A7 () Bool)
(declare-fun A8 () Bool)
(declare-fun A9 () Bool)
(assert (let ((.def_0 (* 1 x0))) (let ((.def_1 (* 1 x3))) (let ((.def_2 (+ .def_1 .def_0))) (let ((.def_3 (< .def_2 (- 1)))) (let ((.def_4 (not .def_3))) (let ((.def_5 (or A2 .def_4))) (let ((.def_6 (* 1 x6))) (let ((.def_7 (* 1 x1))) (let ((.def_8 (+ .def_7 .def_6))) (let ((.def_9 (< .def_8 (- 1)))) (let ((.def_10 (not A4))) (let ((.def_11 (and .def_10 .def_9))) (let ((.def_12 (not .def_11))) (let ((.def_13 (= .def_12 .def_5))) (let ((.def_14 (not .def_13))) (let ((.def_15 (* (- 1) x3))) (let ((.def_16 (* 1 x2))) (let ((.def_17 (+ .def_16 .def_15))) (let ((.def_18 (< .def_17 (- 1)))) (let ((.def_19 (or A3 .def_18))) (let ((.def_20 (not .def_19))) (let ((.def_21 (* (- 1) x6))) (let ((.def_22 (* 1 x5))) (let ((.def_23 (+ .def_22 .def_21))) (let ((.def_24 (< .def_23 (- 1)))) (let ((.def_25 (not .def_24))) (let ((.def_26 (* 1 x8))) (let ((.def_27 (* 1 x4))) (let ((.def_28 (+ .def_27 .def_26))) (let ((.def_29 (< .def_28 1))) (let ((.def_30 (not .def_29))) (let ((.def_31 (or .def_30 .def_25))) (let ((.def_32 (or .def_31 .def_20))) (let ((.def_33 (not .def_32))) (let ((.def_34 (or .def_33 .def_14))) (let ((.def_35 (not .def_34))) (let ((.def_36 (not A7))) (let ((.def_37 (not A3))) (let ((.def_38 (or .def_37 .def_36))) (let ((.def_39 (not .def_38))) (let ((.def_40 (* (- 1) x0))) (let ((.def_41 (+ .def_22 .def_40))) (let ((.def_42 (< .def_41 (- 1)))) (let ((.def_43 (not .def_42))) (let ((.def_44 (or A8 .def_43))) (let ((.def_45 (or .def_44 .def_39))) (let ((.def_46 (not .def_45))) (let ((.def_47 (< .def_22 1))) (let ((.def_48 (* (- 1) x7))) (let ((.def_49 (< .def_48 1))) (let ((.def_50 (not .def_49))) (let ((.def_51 (or .def_50 .def_47))) (let ((.def_52 (* (- 1) x4))) (let ((.def_53 (+ .def_22 .def_52))) (let ((.def_54 (< .def_53 1))) (let ((.def_55 (and .def_54 A0))) (let ((.def_56 (not .def_55))) (let ((.def_57 (or .def_56 .def_51))) (let ((.def_58 (not .def_57))) (let ((.def_59 (= .def_58 .def_46))) (let ((.def_60 (and .def_59 .def_35))) (let ((.def_61 (not .def_60))) (let ((.def_62 (* (- 1) x8))) (let ((.def_63 (< .def_62 1))) (let ((.def_64 (or .def_63 .def_37))) (let ((.def_65 (not .def_64))) (let ((.def_66 (+ .def_6 .def_48))) (let ((.def_67 (< .def_66 1))) (let ((.def_68 (or .def_67 .def_36))) (let ((.def_69 (not .def_68))) (let ((.def_70 (and .def_69 .def_65))) (let ((.def_71 (+ .def_7 .def_40))) (let ((.def_72 (< .def_71 (- 1)))) (let ((.def_73 (not .def_72))) (let ((.def_74 (and .def_73 A4))) (let ((.def_75 (+ .def_15 .def_0))) (let ((.def_76 (< .def_75 1))) (let ((.def_77 (and .def_49 .def_76))) (let ((.def_78 (or .def_77 .def_74))) (let ((.def_79 (not .def_78))) (let ((.def_80 (or .def_79 .def_70))) (let ((.def_81 (* 1 x7))) (let ((.def_82 (+ .def_21 .def_81))) (let ((.def_83 (< .def_82 (- 1)))) (let ((.def_84 (not .def_83))) (let ((.def_85 (not A1))) (let ((.def_86 (and .def_85 .def_84))) (let ((.def_87 (< .def_7 (- 1)))) (let ((.def_88 (or .def_36 .def_87))) (let ((.def_89 (or .def_88 .def_86))) (let ((.def_90 (not A9))) (let ((.def_91 (not A6))) (let ((.def_92 (or .def_91 .def_90))) (let ((.def_93 (not A8))) (let ((.def_94 (* (- 1) x5))) (let ((.def_95 (+ .def_94 .def_0))) (let ((.def_96 (< .def_95 1))) (let ((.def_97 (not .def_96))) (let ((.def_98 (= .def_97 .def_93))) (let ((.def_99 (not .def_98))) (let ((.def_100 (or .def_99 .def_92))) (let ((.def_101 (= .def_100 .def_89))) (let ((.def_102 (not .def_101))) (let ((.def_103 (or .def_102 .def_80))) (let ((.def_104 (not .def_103))) (let ((.def_105 (and .def_104 .def_61))) (let ((.def_106 (<= x9 1))) (let ((.def_107 (<= 0 x9))) (let ((.def_108 (<= x8 1))) (let ((.def_109 (<= 0 x8))) (let ((.def_110 (<= x7 1))) (let ((.def_111 (<= 0 x7))) (let ((.def_112 (<= x6 1))) (let ((.def_113 (<= 0 x6))) (let ((.def_114 (<= x5 1))) (let ((.def_115 (<= 0 x5))) (let ((.def_116 (<= x4 1))) (let ((.def_117 (<= 0 x4))) (let ((.def_118 (<= x3 1))) (let ((.def_119 (<= 0 x3))) (let ((.def_120 (<= x2 1))) (let ((.def_121 (<= 0 x2))) (let ((.def_122 (<= x1 1))) (let ((.def_123 (<= 0 x1))) (let ((.def_124 (<= x0 1))) (let ((.def_125 (<= 0 x0))) (let ((.def_126 (and .def_125 .def_124 .def_123 .def_122 .def_121 .def_120 .def_119 .def_118 .def_117 .def_116 .def_115 .def_114 .def_113 .def_112 .def_111 .def_110 .def_109 .def_108 .def_107 .def_106 .def_105))) .def_126))))))))))))))))))))))))))))))))))))))))))))))))))))))))))))))))))))))))))))))))))))))))))))))))))))))))))))))))))))))))))))))))
(check-sat)
